Set parameter TSPort to value 51199
Set parameter TokenServer to value "open-license1.lanl.gov"
Set parameter TimeLimit to value 8192
Set parameter Threads to value 1
Gurobi Optimizer version 10.0.3 build v10.0.3rc0 (linux64)

CPU model: Intel(R) Xeon(R) CPU E5-2695 v4 @ 2.10GHz, instruction set [SSE2|AVX|AVX2]
Thread count: 36 physical cores, 72 logical processors, using up to 1 threads

Optimize a model with 0 rows, 3447 columns and 0 nonzeros
Model fingerprint: 0x1544589c
Model has 16006 quadratic objective terms
Variable types: 0 continuous, 3447 integer (3447 binary)
Coefficient statistics:
  Matrix range     [0e+00, 0e+00]
  Objective range  [2e+00, 3e+01]
  QObjective range [8e+00, 8e+00]
  Bounds range     [1e+00, 1e+00]
  RHS range        [0e+00, 0e+00]
Found heuristic solution: objective 0.0000000
Found heuristic solution: objective -5848.000000
Found heuristic solution: objective -21510.00000
Found heuristic solution: objective -21582.00000
Presolve removed 0 rows and 2 columns
Presolve time: 0.45s
Presolved: 16004 rows, 19449 columns, 48012 nonzeros
Variable types: 0 continuous, 19449 integer (19449 binary)

Root relaxation: objective -3.001400e+04, 4663 iterations, 0.07 seconds (0.03 work units)

    Nodes    |    Current Node    |     Objective Bounds      |     Work
 Expl Unexpl |  Obj  Depth IntInf | Incumbent    BestBd   Gap | It/Node Time

     0     0 -30014.000    0 3445 -21582.000 -30014.000  39.1%     -    0s
     0     0 -28263.500    0 4289 -21582.000 -28263.500  31.0%     -    1s
     0     0 -27818.500    0 4551 -21582.000 -27818.500  28.9%     -    2s
     0     0 -27803.000    0 4557 -21582.000 -27803.000  28.8%     -    2s
     0     0 -27475.300    0 4790 -21582.000 -27475.300  27.3%     -    2s
     0     0 -27475.300    0 4742 -21582.000 -27475.300  27.3%     -    3s
     0     2 -27475.300    0 4740 -21582.000 -27475.300  27.3%     -    4s
    20    22 -27383.300   10 4839 -21582.000 -27465.300  27.3%   241    5s
   236   238 -26422.375  118 5591 -21582.000 -27465.300  27.3%  94.2   10s
   466   468 -25463.000  233 6228 -21582.000 -27465.300  27.3%  82.6   15s
H  648   648                    -21584.00000 -27465.300  27.2%  78.9   19s
   672   674 -24704.000  336 6500 -21584.000 -27465.300  27.2%  78.2   20s
   810   812 -24217.000  405 6608 -21584.000 -27465.300  27.2%  75.1   25s
   912   914 -23863.000  456 6683 -21584.000 -27465.300  27.2%  72.3   30s
  1058  1060 -23359.000  529 6792 -21584.000 -27465.300  27.2%  69.7   35s
H 1170  1170                    -21592.00000 -27465.300  27.2%  68.2   37s
H 1222  1222                    -21600.00000 -27465.300  27.2%  67.4   38s
H 1300  1300                    -21606.00000 -27465.300  27.1%  66.5   39s
  1322  1324 -22686.500  662 6822 -21606.000 -27465.300  27.1%  66.2   40s
H 1378  1378                    -21612.00000 -27465.300  27.1%  64.9   40s
H 1430  1430                    -21622.00000 -27465.300  27.0%  64.6   41s
H 1456  1456                    -21628.00000 -27465.300  27.0%  64.5   42s
H 1482  1482                    -21630.00000 -27465.300  27.0%  64.3   43s
H 1534  1534                    -21644.00000 -27465.300  26.9%  63.8   44s
H 1560  1560                    -21654.00000 -27465.300  26.8%  63.5   44s
H 1586  1586                    -21656.00000 -27465.300  26.8%  63.1   44s
  1588  1590 -22093.000  799 6490 -21656.000 -27465.300  26.8%  63.1   45s
H 1612  1612                    -21662.00000 -27465.300  26.8%  62.7   45s
H 1638  1638                    -21666.00000 -27465.300  26.8%  62.4   46s
H 1664  1664                    -21686.00000 -27465.300  26.6%  61.9   46s
H 1716  1716                    -21694.00000 -27465.300  26.6%  61.2   47s
H 1742  1742                    -21704.00000 -27465.300  26.5%  60.8   47s
H 1768  1768                    -21706.00000 -27465.300  26.5%  60.5   48s
H 1794  1762                    -21722.00000 -27465.300  26.4%  60.0   48s
H 1801  1758                    -21724.00000 -27465.300  26.4%  59.9   51s
  1806  1762 -25349.000  247 5004 -21724.000 -27017.000  24.4%  59.8   55s
  1809  1764 -26026.902   50 6068 -21724.000 -26026.902  19.8%  59.7   61s
  1815  1768 -25541.982    2 6505 -21724.000 -25541.982  17.6%  59.5   83s
  1816  1768 -24620.000  349 7122 -21724.000 -25401.903  16.9%  59.4  107s
  1817  1769 -22302.500  752 7310 -21724.000 -25357.969  16.7%  59.4  128s
  1818  1770 -22354.500  742 7477 -21724.000 -25345.871  16.7%  59.4  136s
  1819  1770 -22211.500  772 7556 -21724.000 -25343.130  16.7%  59.3  140s
  1823  1773 -24891.000  312 7791 -21724.000 -25341.242  16.7%  59.2  145s
  1826  1775 -23159.000  567 8290 -21724.000 -24986.394  15.0%  59.1  243s
  1827  1776 -22266.500  758 8892 -21724.000 -24901.620  14.6%  59.1  328s
  1828  1776 -24668.000  342 9238 -21724.000 -24844.982  14.4%  59.0  406s
  1829  1777 -24823.252  100 9520 -21724.000 -24823.252  14.3%  59.0  460s
  1830  1778 -24816.778   90 9702 -21724.000 -24816.778  14.2%  59.0  476s
  1831  1778 -21828.000  862 9845 -21724.000 -24814.451  14.2%  58.9  486s
  1832  1779 -21955.000  830 9805 -21724.000 -24813.301  14.2%  58.9  493s
  1833  1780 -24250.000  401 9905 -21724.000 -24812.694  14.2%  58.9  498s
  1834  1780 -24176.000  412 9933 -21724.000 -24812.489  14.2%  58.8  501s
  1837  1782 -23076.000  580 10010 -21724.000 -24812.335  14.2%  58.7  505s
  1839  1784 -23775.000  469 10349 -21724.000 -24533.571  12.9%  58.7  698s
  1840  1784 -24466.407   99 10595 -21724.000 -24466.407  12.6%  58.6  842s
  1841  1785 -24419.691  240 11178 -21724.000 -24419.691  12.4%  58.6  968s
  1842  1786 -24401.312  139 11498 -21724.000 -24401.312  12.3%  58.6 1031s
  1843  1786 -22414.500  731 11597 -21724.000 -24395.642  12.3%  58.6 1063s
  1844  1787 -23797.500  466 11711 -21724.000 -24393.760  12.3%  58.5 1078s
  1845  1788 -23833.000  461 11816 -21724.000 -24392.919  12.3%  58.5 1087s
  1846  1788 -24392.617  348 11832 -21724.000 -24392.617  12.3%  58.5 1092s
  1847  1789 -23135.000  572 11921 -21724.000 -24392.450  12.3%  58.4 1096s
  1849  1790 -22488.500  717 11940 -21724.000 -24392.333  12.3%  58.4 1100s
  1852  1792 -22986.500  597 12117 -21724.000 -24199.880  11.4%  58.3 1366s
  1853  1793 -23023.500  590 12425 -21724.000 -24152.813  11.2%  58.2 1543s
  1854  1794 -24115.187  315 12826 -21724.000 -24115.187  11.0%  58.2 1713s
  1855  1794 -24103.939  339 13240 -21724.000 -24103.939  11.0%  58.2 1795s
  1856  1795 -24100.260  423 13377 -21724.000 -24100.260  10.9%  58.1 1834s
  1857  1796 -24099.033  287 13444 -21724.000 -24099.033  10.9%  58.1 1853s
  1858  1796 -24098.441  329 13417 -21724.000 -24098.441  10.9%  58.1 1866s
  1859  1797 -24098.226  212 13455 -21724.000 -24098.226  10.9%  58.0 1872s
  1860  1798 -22680.500  668 13478 -21724.000 -24098.122  10.9%  58.0 1877s
  1861  1798 -22365.500  740 13502 -21724.000 -24098.046  10.9%  58.0 1880s
  1865  1801 -24097.996  304 13534 -21724.000 -24097.996  10.9%  57.9 1889s
  1866  1802 -22867.500  623 14130 -21724.000 -23935.882  10.2%  57.8 2257s
  1867  1802 -21755.000  879 14606 -21724.000 -23904.129  10.0%  57.8 2460s
  1868  1803 -23127.000  573 14836 -21724.000 -23881.097  9.93%  57.8 2657s
  1869  1804 -22346.500  744 15079 -21724.000 -23874.932  9.90%  57.7 2741s
  1870  1804 -22782.500  641 15240 -21724.000 -23872.778  9.89%  57.7 2782s
  1871  1805 -23871.810  107 15330 -21724.000 -23871.810  9.89%  57.7 2807s
  1872  1806 -23871.508  343 15319 -21724.000 -23871.508  9.89%  57.6 2818s
  1873  1806 -23871.413  206 15401 -21724.000 -23871.413  9.88%  57.6 2823s
  1874  1807 -23767.000  470 15456 -21724.000 -23871.387  9.88%  57.6 2827s
  1876  1808 -23068.000  582 15460 -21724.000 -23871.372  9.88%  57.5 2833s
  1877  1809 -23773.323   30 15555 -21724.000 -23773.323  9.43%  57.5 3226s
  1878  1810 -23752.371   56 15821 -21724.000 -23752.371  9.34%  57.5 3444s
  1879  1810 -23747.863  422 15935 -21724.000 -23747.863  9.32%  57.4 3526s
  1880  1811 -22687.500  664 15992 -21724.000 -23746.385  9.31%  57.4 3575s
  1881  1812 -23745.901  126 16014 -21724.000 -23745.901  9.31%  57.4 3594s
  1882  1812 -23745.714  149 16044 -21724.000 -23745.714  9.31%  57.3 3609s
  1883  1813 -23745.643  314 16047 -21724.000 -23745.643  9.31%  57.3 3615s
  1885  1814 -23745.603  254 16088 -21724.000 -23745.603  9.31%  57.2 3621s
  1886  1815 -23310.500  540 16099 -21724.000 -23745.599  9.31%  57.2 3626s
  1887  1816 -23689.587  371 16047 -21724.000 -23689.587  9.05%  57.2 3980s
  1888  1816 -23678.798   28 16233 -21724.000 -23678.798  9.00%  57.2 4164s
  1889  1817 -23472.000  513 16289 -21724.000 -23676.768  8.99%  57.1 4231s
  1890  1818 -23676.245   87 16322 -21724.000 -23676.245  8.99%  57.1 4260s
  1891  1818 -23676.093  263 16357 -21724.000 -23676.093  8.99%  57.1 4273s
  1892  1819 -23675.995  321 16391 -21724.000 -23675.995  8.99%  57.0 4281s
  1894  1820 -23675.966  442 16405 -21724.000 -23675.966  8.99%  57.0 4287s
  1895  1821 -23675.962  195 16406 -21724.000 -23675.962  8.99%  56.9 4291s
  1896  1822 -23632.754  136 16344 -21724.000 -23632.754  8.79%  56.9 4628s
  1897  1822 -21892.000  846 16493 -21724.000 -23624.746  8.75%  56.9 4807s
  1898  1823 -23466.000  514 16575 -21724.000 -23623.201  8.74%  56.9 4856s
  1899  1824 -21843.000  858 16628 -21724.000 -23622.658  8.74%  56.8 4892s
  1900  1824 -23622.504  185 16657 -21724.000 -23622.504  8.74%  56.8 4903s
  1901  1825 -23622.446  126 16683 -21724.000 -23622.446  8.74%  56.8 4909s
  1902  1826 -23622.432  143 16673 -21724.000 -23622.432  8.74%  56.7 4913s
  1903  1826 -22491.500  716 16678 -21724.000 -23622.395  8.74%  56.7 4916s
  1904  1827 -23622.391  441 16669 -21724.000 -23622.391  8.74%  56.7 4921s
  1905  1828 -22669.500  670 16485 -21724.000 -23590.683  8.59%  56.6 5229s
  1906  1828 -23585.272  247 16583 -21724.000 -23585.272  8.57%  56.6 5371s
  1907  1829 -22477.500  720 16597 -21724.000 -23583.952  8.56%  56.6 5428s
  1908  1830 -23091.000  578 16628 -21724.000 -23583.597  8.56%  56.6 5451s
  1909  1830 -23583.476   50 16653 -21724.000 -23583.476  8.56%  56.5 5465s
  1910  1831 -23583.372  313 16677 -21724.000 -23583.372  8.56%  56.5 5475s
  1912  1832 -22162.750  782 16679 -21724.000 -23583.327  8.56%  56.4 5482s
  1913  1833 -22901.500  614 16692 -21724.000 -23583.318  8.56%  56.4 5485s
  1915  1834 -23554.145    2 16612 -21724.000 -23554.145  8.42%  56.3 5822s
  1916  1835 -23548.246  349 16762 -21724.000 -23548.246  8.40%  56.3 5976s
  1917  1836 -22302.500  752 16740 -21724.000 -23547.175  8.39%  56.3 6027s
  1918  1836 -22354.500  742 16816 -21724.000 -23546.922  8.39%  56.3 6047s
  1919  1837 -22211.500  772 16850 -21724.000 -23546.838  8.39%  56.2 6055s
  1920  1838 -23546.812   37 16863 -21724.000 -23546.812  8.39%  56.2 6060s
  1922  1839 -23546.794   38 16876 -21724.000 -23546.794  8.39%  56.1 6066s
  1924  1840 -23074.000  581 16641 -21724.000 -23523.529  8.28%  56.1 6350s
  1925  1841 -23238.000  553 16795 -21724.000 -23518.742  8.26%  56.1 6493s
  1926  1842 -23159.000  567 16885 -21724.000 -23517.676  8.26%  56.0 6546s
  1927  1842 -22266.500  758 16912 -21724.000 -23517.431  8.26%  56.0 6568s
  1928  1843 -23517.349  342 16923 -21724.000 -23517.349  8.26%  56.0 6576s
  1929  1844 -23517.330  100 16938 -21724.000 -23517.330  8.26%  55.9 6580s
  1931  1845 -21828.000  862 16780 -21724.000 -23494.893  8.15%  55.9 6896s
  1932  1846 -21955.000  830 16883 -21724.000 -23490.050  8.13%  55.9 7047s
  1933  1846 -23489.030  401 16954 -21724.000 -23489.030  8.12%  55.8 7092s
  1934  1847 -23488.707  412 17013 -21724.000 -23488.707  8.12%  55.8 7118s
  1935  1848 -23488.627  341 17032 -21724.000 -23488.627  8.12%  55.8 7129s
  1936  1848 -23488.592  125 17034 -21724.000 -23488.592  8.12%  55.7 7134s
  1937  1849 -23076.000  580 17047 -21724.000 -23488.363  8.12%  55.7 7148s
  1938  1850 -22482.500  719 17046 -21724.000 -23488.330  8.12%  55.7 7153s
  1939  1850 -23488.320  469 17045 -21724.000 -23488.320  8.12%  55.7 7156s
  1941  1852 -23469.261  240 16884 -21724.000 -23469.261  8.03%  55.6 7443s
  1942  1852 -23465.236  139 16982 -21724.000 -23465.236  8.02%  55.6 7580s
  1943  1853 -22414.500  731 17061 -21724.000 -23464.485  8.01%  55.5 7619s
  1944  1854 -23464.266  466 17081 -21724.000 -23464.266  8.01%  55.5 7641s
  1945  1854 -23464.121  461 17098 -21724.000 -23464.121  8.01%  55.5 7654s
  1946  1855 -23464.084  348 17114 -21724.000 -23464.084  8.01%  55.5 7660s
  1948  1856 -23464.068  475 17127 -21724.000 -23464.068  8.01%  55.4 7665s
H 1949  1761                    -21726.00000 -23449.668  7.93%  55.4 7928s
  1951  1762 -21807.000  866 17074 -21726.000 -23445.150  7.91%  55.3 8083s
  1952  1763 -22986.500  597 17139 -21726.000 -23444.424  7.91%  55.3 8121s
  1953  1764 -23023.500  590 17187 -21726.000 -23444.226  7.91%  55.3 8136s
  1954  1764 -23444.161  315 17198 -21726.000 -23444.161  7.91%  55.2 8146s
  1955  1765 -23444.143  339 17208 -21726.000 -23444.143  7.91%  55.2 8152s
  1956  1766 -23444.131  423 17229 -21726.000 -23444.131  7.91%  55.2 8155s

Cutting planes:
  Gomory: 120
  MIR: 604
  Flow cover: 6100
  Zero half: 2269
  Mod-K: 122
  RLT: 698
  BQP: 1017

Explored 1957 nodes (3725977 simplex iterations) in 8192.00 seconds (12762.99 work units)
Thread count was 1 (of 72 available processors)

Solution count 10: -21726 -21724 -21722 ... -21656

Time limit reached
Best objective -2.172600000000e+04, best bound -2.344400000000e+04, gap 7.9076%

User-callback calls 21260, time in user-callback 0.12 sec

BQP_SOLUTION, 3447, 16006, -7718.000000, 8192.004085, 1, -1, 1, -1, 1, -1, -1, 1, 1, -1, 1, 1, 1, -1, 1, -1, -1, -1, -1, 1, -1, 1, 1, -1, 1, -1, 1, -1, 1, -1, -1, 1, -1, -1, 1, -1, -1, -1, -1, -1, -1, 1, -1, 1, 1, 1, 1, 1, -1, -1, -1, -1, -1, 1, -1, 1, -1, 1, -1, 1, -1, -1, 1, 1, 1, 1, -1, 1, 1, -1, 1, 1, -1, 1, -1, -1, -1, 1, -1, 1, 1, -1, -1, 1, -1, -1, -1, -1, -1, -1, -1, 1, 1, 1, -1, 1, -1, -1, -1, 1, -1, 1, -1, 1, 1, -1, 1, 1, 1, -1, -1, -1, -1, 1, -1, 1, 1, 1, -1, 1, -1, -1, -1, -1, -1, 1, 1, 1, 1, 1, 1, 1, 1, -1, -1, 1, -1, 1, 1, -1, 1, 1, -1, -1, -1, -1, 1, -1, 1, 1, -1, 1, 1, -1, 1, 1, -1, -1, -1, 1, 1, 1, 1, -1, 1, -1, -1, 1, -1, 1, -1, -1, 1, 1, 1, 1, 1, -1, 1, -1, -1, 1, -1, 1, 1, 1, 1, 1, -1, 1, -1, 1, -1, -1, 1, -1, -1, 1, 1, 1, -1, -1, -1, -1, -1, 1, -1, 1, 1, 1, -1, -1, 1, -1, 1, 1, -1, 1, 1, -1, 1, 1, 1, -1, -1, -1, -1, 1, 1, -1, 1, 1, 1, 1, 1, -1, 1, -1, 1, -1, 1, -1, 1, -1, 1, 1, 1, 1, -1, -1, -1, 1, 1, -1, 1, 1, 1, -1, 1, -1, 1, -1, -1, 1, 1, -1, 1, -1, 1, 1, 1, -1, -1, -1, -1, 1, -1, 1, 1, 1, 1, -1, 1, -1, -1, -1, -1, 1, 1, -1, 1, 1, -1, 1, -1, -1, 1, -1, -1, 1, -1, 1, 1, 1, -1, 1, -1, -1, -1, -1, 1, -1, -1, -1, 1, 1, 1, 1, -1, -1, 1, -1, 1, -1, -1, -1, 1, 1, -1, 1, -1, -1, -1, 1, -1, -1, 1, -1, 1, -1, 1, 1, 1, -1, -1, 1, -1, 1, -1, -1, 1, 1, -1, -1, 1, -1, -1, -1, 1, -1, -1, -1, 1, -1, -1, 1, -1, -1, -1, 1, 1, -1, 1, -1, 1, 1, -1, 1, -1, -1, -1, 1, 1, -1, -1, -1, -1, 1, -1, 1, -1, -1, 1, 1, -1, 1, -1, 1, -1, -1, 1, -1, -1, -1, -1, 1, 1, 1, 1, -1, -1, -1, 1, -1, 1, -1, -1, 1, -1, -1, -1, -1, 1, -1, 1, -1, 1, -1, 1, 1, -1, -1, -1, 1, -1, 1, -1, -1, 1, -1, 1, -1, -1, -1, -1, -1, -1, -1, 1, -1, -1, -1, 1, 1, -1, 1, -1, -1, -1, 1, 1, -1, 1, 1, 1, 1, -1, -1, -1, -1, 1, 1, -1, 1, 1, 1, 1, 1, -1, -1, -1, -1, -1, 1, 1, -1, 1, -1, 1, 1, -1, -1, -1, -1, 1, -1, 1, 1, 1, -1, 1, 1, -1, -1, -1, 1, -1, 1, 1, 1, 1, -1, 1, 1, -1, 1, -1, -1, -1, 1, -1, 1, -1, 1, 1, 1, -1, -1, -1, -1, 1, 1, 1, -1, 1, 1, 1, 1, 1, -1, -1, -1, -1, 1, 1, -1, 1, 1, 1, 1, 1, -1, -1, 1, -1, 1, -1, 1, 1, 1, -1, 1, 1, -1, -1, -1, -1, 1, 1, 1, 1, 1, -1, -1, 1, -1, -1, -1, 1, 1, -1, 1, 1, 1, -1, 1, -1, -1, 1, -1, 1, 1, 1, 1, -1, 1, 1, 1, 1, -1, 1, -1, 1, 1, 1, 1, 1, 1, 1, -1, 1, -1, 1, -1, 1, 1, 1, 1, -1, 1, 1, -1, 1, -1, -1, 1, 1, 1, -1, -1, 1, 1, 1, -1, 1, 1, 1, -1, -1, 1, -1, 1, 1, 1, 1, -1, 1, -1, 1, 1, 1, 1, -1, 1, 1, 1, -1, -1, 1, -1, 1, 1, 1, 1, -1, 1, 1, 1, 1, -1, -1, -1, 1, 1, -1, 1, 1, 1, 1, 1, 1, -1, -1, -1, -1, 1, 1, 1, 1, -1, 1, 1, 1, 1, -1, -1, 1, 1, 1, -1, 1, -1, 1, 1, -1, 1, -1, -1, 1, 1, -1, 1, -1, 1, 1, 1, 1, 1, -1, 1, 1, 1, -1, 1, -1, 1, 1, 1, 1, -1, -1, 1, 1, 1, -1, 1, 1, 1, 1, 1, 1, -1, 1, -1, 1, 1, 1, 1, -1, 1, -1, 1, 1, 1, -1, 1, 1, 1, 1, -1, 1, -1, 1, 1, 1, -1, 1, -1, 1, 1, 1, -1, 1, -1, 1, 1, -1, 1, -1, -1, 1, 1, 1, -1, -1, 1, -1, 1, 1, 1, -1, -1, 1, 1, 1, -1, -1, 1, 1, 1, 1, -1, -1, 1, 1, 1, 1, -1, -1, 1, -1, 1, -1, 1, -1, -1, -1, 1, 1, -1, -1, 1, -1, -1, 1, -1, 1, -1, 1, 1, 1, -1, -1, 1, -1, 1, -1, 1, -1, -1, 1, 1, 1, 1, -1, 1, 1, 1, 1, -1, 1, -1, 1, 1, 1, 1, -1, 1, 1, 1, 1, -1, 1, -1, 1, 1, 1, -1, 1, -1, 1, 1, -1, 1, -1, -1, 1, 1, 1, -1, -1, 1, -1, 1, -1, 1, -1, -1, 1, 1, 1, -1, 1, -1, 1, 1, -1, -1, -1, -1, 1, 1, 1, -1, -1, 1, 1, 1, -1, 1, -1, 1, 1, 1, 1, -1, 1, 1, 1, -1, -1, -1, -1, -1, 1, 1, -1, -1, 1, -1, 1, -1, -1, 1, 1, 1, -1, 1, 1, -1, 1, 1, -1, 1, -1, -1, 1, 1, 1, 1, 1, -1, 1, 1, 1, -1, 1, 1, 1, 1, 1, 1, 1, -1, -1, 1, 1, -1, 1, -1, 1, -1, 1, 1, 1, -1, -1, -1, 1, -1, -1, 1, 1, 1, 1, -1, 1, 1, -1, 1, 1, -1, -1, -1, 1, -1, 1, 1, 1, 1, -1, 1, 1, -1, 1, -1, 1, -1, 1, 1, 1, 1, 1, 1, -1, 1, -1, 1, 1, -1, -1, 1, -1, 1, 1, 1, 1, -1, -1, 1, 1, 1, 1, 1, -1, -1, 1, 1, 1, -1, -1, 1, 1, 1, 1, 1, -1, -1, 1, 1, 1, -1, -1, 1, 1, -1, 1, 1, 1, -1, 1, 1, 1, 1, -1, -1, 1, 1, 1, 1, 1, -1, -1, 1, -1, -1, -1, -1, 1, 1, 1, -1, 1, -1, 1, 1, 1, 1, -1, -1, 1, 1, 1, -1, 1, -1, -1, 1, 1, 1, -1, 1, -1, 1, 1, 1, 1, -1, -1, -1, 1, -1, 1, -1, 1, 1, 1, 1, 1, -1, -1, 1, 1, 1, -1, 1, 1, 1, 1, -1, 1, -1, 1, 1, 1, 1, -1, 1, 1, 1, 1, 1, 1, -1, 1, 1, 1, 1, -1, 1, 1, 1, -1, 1, -1, -1, 1, -1, -1, 1, -1, 1, 1, 1, -1, 1, -1, 1, 1, 1, 1, 1, -1, 1, -1, 1, -1, 1, -1, -1, 1, -1, 1, 1, -1, 1, 1, 1, -1, 1, -1, -1, 1, 1, -1, 1, 1, -1, 1, 1, -1, 1, 1, -1, 1, 1, 1, 1, 1, 1, -1, 1, 1, 1, -1, -1, -1, 1, -1, 1, 1, -1, -1, 1, -1, -1, -1, -1, 1, 1, 1, 1, 1, -1, -1, 1, 1, 1, 1, 1, 1, 1, 1, 1, 1, -1, -1, 1, -1, 1, 1, -1, -1, 1, 1, 1, 1, -1, -1, 1, 1, 1, -1, -1, 1, 1, -1, 1, 1, -1, -1, 1, 1, 1, -1, 1, -1, 1, 1, 1, 1, -1, -1, 1, -1, 1, -1, 1, -1, 1, 1, 1, 1, -1, 1, -1, 1, -1, 1, -1, 1, 1, 1, 1, 1, -1, -1, 1, -1, -1, -1, -1, -1, 1, 1, 1, 1, -1, 1, -1, -1, -1, -1, 1, -1, 1, 1, 1, -1, -1, 1, -1, -1, -1, 1, -1, -1, 1, 1, 1, -1, 1, -1, -1, -1, -1, -1, 1, -1, 1, 1, 1, -1, -1, 1, -1, -1, -1, 1, 1, -1, 1, 1, 1, 1, -1, -1, 1, -1, 1, -1, 1, -1, 1, -1, 1, 1, -1, 1, -1, -1, 1, 1, 1, -1, 1, 1, -1, -1, -1, 1, 1, -1, -1, 1, 1, -1, -1, 1, -1, 1, -1, 1, 1, -1, 1, -1, 1, -1, 1, -1, -1, 1, -1, -1, 1, -1, -1, 1, 1, -1, -1, 1, -1, 1, 1, 1, 1, -1, -1, -1, 1, -1, -1, -1, -1, 1, -1, 1, -1, -1, 1, 1, 1, -1, 1, -1, 1, -1, -1, 1, -1, -1, -1, 1, 1, -1, -1, -1, -1, -1, -1, 1, -1, -1, 1, -1, 1, -1, 1, 1, -1, 1, -1, 1, -1, -1, 1, -1, -1, -1, 1, -1, -1, -1, 1, 1, -1, -1, 1, -1, -1, -1, 1, 1, -1, 1, 1, 1, 1, -1, 1, -1, 1, -1, 1, 1, -1, 1, -1, -1, 1, -1, -1, -1, -1, -1, 1, -1, -1, 1, -1, 1, 1, -1, 1, 1, -1, -1, 1, -1, -1, -1, -1, -1, 1, -1, 1, -1, -1, -1, 1, 1, -1, 1, 1, -1, 1, -1, 1, -1, -1, -1, -1, 1, -1, 1, 1, -1, 1, -1, -1, -1, 1, -1, -1, 1, 1, -1, -1, 1, 1, -1, -1, 1, -1, -1, 1, 1, 1, 1, -1, -1, 1, -1, -1, -1, -1, -1, 1, 1, 1, 1, 1, -1, 1, -1, 1, -1, -1, 1, 1, -1, 1, -1, 1, 1, 1, -1, 1, -1, -1, -1, 1, -1, 1, -1, -1, 1, -1, 1, -1, -1, 1, 1, 1, -1, 1, -1, -1, 1, -1, -1, 1, -1, -1, 1, 1, 1, 1, -1, 1, 1, -1, 1, 1, -1, -1, -1, 1, -1, -1, -1, 1, 1, -1, 1, 1, -1, -1, -1, 1, 1, -1, -1, -1, 1, -1, 1, 1, -1, -1, -1, 1, 1, -1, -1, -1, 1, -1, 1, 1, 1, -1, -1, -1, 1, -1, -1, 1, 1, -1, -1, 1, -1, -1, 1, -1, 1, -1, 1, -1, 1, -1, 1, 1, -1, -1, -1, -1, 1, -1, -1, 1, 1, 1, -1, 1, 1, -1, -1, -1, 1, 1, 1, -1, -1, 1, 1, -1, 1, 1, 1, 1, 1, 1, -1, 1, 1, 1, 1, 1, -1, -1, 1, -1, 1, 1, 1, -1, 1, -1, 1, 1, 1, 1, 1, 1, 1, 1, 1, 1, -1, 1, 1, 1, -1, -1, 1, 1, -1, 1, 1, 1, 1, 1, 1, -1, -1, 1, 1, 1, 1, -1, -1, -1, 1, 1, 1, -1, 1, -1, 1, -1, 1, 1, 1, 1, 1, -1, 1, 1, 1, 1, 1, 1, 1, 1, 1, 1, 1, 1, 1, -1, -1, 1, 1, 1, -1, 1, 1, 1, -1, 1, 1, 1, -1, 1, 1, 1, 1, 1, 1, -1, 1, 1, -1, -1, 1, -1, 1, 1, 1, -1, 1, 1, 1, 1, 1, 1, -1, 1, 1, 1, 1, 1, 1, -1, 1, 1, -1, 1, -1, -1, 1, -1, 1, -1, -1, -1, 1, -1, 1, -1, -1, 1, 1, -1, 1, 1, 1, 1, 1, -1, -1, -1, -1, 1, -1, 1, -1, 1, 1, 1, 1, -1, -1, 1, -1, 1, -1, 1, -1, 1, -1, 1, 1, -1, -1, 1, -1, 1, -1, 1, -1, 1, 1, 1, 1, -1, 1, -1, -1, 1, -1, 1, -1, 1, -1, 1, 1, -1, -1, -1, -1, 1, -1, -1, 1, 1, 1, 1, -1, -1, -1, 1, -1, 1, -1, -1, 1, 1, -1, 1, 1, -1, -1, -1, -1, 1, -1, -1, 1, 1, 1, 1, 1, -1, -1, -1, -1, -1, -1, -1, 1, 1, -1, -1, 1, -1, -1, -1, -1, 1, -1, -1, -1, 1, 1, -1, 1, -1, -1, -1, 1, -1, -1, -1, -1, 1, -1, 1, 1, 1, -1, -1, -1, -1, 1, -1, -1, 1, -1, 1, 1, -1, -1, 1, -1, -1, -1, -1, -1, 1, -1, 1, -1, -1, -1, -1, 1, -1, -1, 1, -1, 1, -1, -1, 1, -1, -1, -1, -1, 1, 1, -1, -1, 1, -1, 1, 1, -1, -1, -1, -1, 1, -1, -1, 1, -1, -1, 1, 1, -1, -1, -1, -1, 1, 1, -1, 1, 1, -1, 1, -1, 1, 1, -1, -1, 1, -1, -1, 1, 1, -1, 1, -1, -1, -1, -1, -1, 1, -1, -1, 1, -1, -1, 1, 1, -1, 1, -1, -1, 1, 1, -1, -1, 1, 1, 1, -1, 1, -1, 1, -1, 1, 1, -1, -1, -1, -1, 1, 1, -1, -1, -1, -1, -1, 1, 1, 1, -1, -1, 1, 1, -1, -1, -1, -1, 1, 1, 1, -1, 1, 1, -1, 1, -1, -1, -1, -1, 1, 1, 1, 1, -1, 1, 1, -1, -1, -1, -1, 1, 1, 1, -1, 1, -1, 1, 1, -1, -1, -1, -1, 1, 1, 1, 1, 1, -1, 1, 1, -1, -1, -1, -1, -1, 1, 1, 1, -1, 1, 1, -1, -1, -1, -1, -1, 1, 1, 1, 1, -1, 1, 1, -1, 1, -1, -1, -1, 1, 1, 1, 1, 1, 1, 1, -1, 1, -1, -1, -1, 1, 1, 1, 1, 1, -1, 1, 1, -1, -1, -1, 1, -1, 1, 1, -1, 1, -1, 1, -1, -1, 1, -1, -1, 1, 1, 1, 1, 1, -1, 1, -1, -1, -1, -1, 1, 1, 1, 1, 1, -1, -1, 1, -1, 1, -1, -1, 1, -1, 1, 1, 1, -1, 1, -1, 1, -1, 1, -1, 1, -1, 1, -1, 1, -1, -1, -1, -1, 1, -1, 1, 1, 1, -1, 1, 1, -1, 1, -1, 1, 1, -1, 1, 1, 1, 1, -1, 1, -1, 1, -1, -1, 1, -1, 1, -1, 1, 1, 1, -1, 1, -1, -1, -1, 1, -1, 1, -1, -1, 1, 1, 1, -1, 1, -1, 1, 1, -1, -1, 1, -1, 1, -1, 1, -1, -1, -1, -1, 1, 1, -1, -1, -1, 1, -1, 1, -1, 1, 1, -1, 1, -1, 1, -1, 1, 1, -1, -1, -1, 1, -1, -1, 1, -1, -1, 1, 1, 1, -1, 1, 1, -1, -1, -1, 1, -1, 1, -1, 1, -1, -1, 1, -1, 1, 1, -1, 1, 1, -1, -1, 1, 1, -1, 1, -1, 1, -1, -1, 1, -1, -1, -1, 1, -1, 1, 1, -1, -1, -1, 1, -1, 1, -1, -1, 1, 1, 1, -1, -1, 1, -1, 1, 1, 1, -1, -1, 1, 1, -1, -1, -1, -1, -1, -1, 1, 1, -1, 1, 1, 1, -1, -1, 1, -1, -1, -1, 1, -1, -1, 1, -1, 1, -1, -1, -1, -1, 1, 1, 1, 1, -1, 1, 1, -1, -1, -1, 1, 1, 1, -1, 1, -1, -1, 1, -1, 1, -1, -1, -1, 1, 1, -1, 1, 1, -1, 1, -1, 1, -1, -1, -1, -1, -1, -1, 1, 1, -1, 1, 1, 1, 1, -1, -1, -1, 1, 1, -1, 1, 1, 1, -1, 1, 1, -1, -1, 1, -1, 1, -1, 1, 1, 1, -1, 1, -1, 1, -1, 1, 1, -1, 1, 1, -1, 1, -1, 1, -1, 1, -1, -1, 1, 1, -1, 1, -1, 1, -1, 1, -1, 1, -1, -1, 1, -1, -1, 1, 1, 1, -1, 1, 1, 1, -1, -1, -1, -1, 1, -1, 1, 1, -1, -1, 1, -1, -1, -1, -1, 1, -1, 1, 1, -1, -1, 1, -1, 1, 1, -1, -1, -1, 1, 1, 1, -1, 1, 1, -1, 1, 1, -1, -1, -1, 1, 1, -1, -1, 1, -1, 1, -1, 1, 1, 1, -1, -1, 1, 1, -1, 1, 1, 1, -1, 1, -1, -1, -1, 1, 1, 1, -1, 1, 1, 1, -1, 1, -1, -1, -1, 1, 1, 1, -1, 1, 1, 1, -1, 1, -1, -1, 1, -1, 1, 1, -1, 1, 1, 1, -1, 1, -1, -1, -1, -1, 1, 1, -1, 1, 1, 1, 1, 1, 1, -1, 1, 1, -1, -1, 1, 1, 1, 1, 1, 1, -1, -1, -1, -1, 1, 1, -1, 1, 1, 1, -1, 1, -1, -1, -1, 1, 1, -1, 1, -1, 1, 1, 1, 1, 1, -1, 1, -1, 1, -1, 1, 1, 1, -1, 1, 1, -1, -1, -1, -1, 1, 1, 1, 1, 1, 1, 1, 1, -1, -1, 1, 1, -1, 1, -1, 1, 1, -1, 1, 1, -1, -1, 1, -1, -1, 1, 1, 1, 1, -1, 1, -1, -1, -1, 1, -1, -1, 1, 1, 1, 1, 1, -1, 1, -1, -1, 1, 1, -1, -1, 1, 1, 1, -1, 1, 1, 1, -1, 1, -1, -1, 1, 1, 1, 1, -1, 1, 1, -1, -1, -1, -1, -1, -1, 1, 1, 1, -1, 1, 1, -1, -1, -1, -1, -1, -1, 1, 1, 1, -1, -1, 1, 1, -1, 1, 1, -1, -1, 1, 1, 1, -1, -1, 1, -1, -1, -1, -1, -1, -1, 1, 1, 1, 1, -1, 1, 1, -1, -1, -1, -1, -1, -1, 1, 1, -1, 1, 1, -1, 1, -1, -1, -1, -1, -1, 1, -1, -1, 1, 1, -1, -1, 1, -1, -1, -1, 1, 1, 1, -1, 1, 1, -1, -1, -1, -1, 1, -1, 1, -1, 1, -1, 1, 1, -1, -1, -1, -1, 1, -1, -1, 1, -1, -1, 1, 1, 1, -1, -1, 1, -1, -1, 1, -1, 1, -1, 1, 1, -1, -1, 1, -1, 1, -1, -1, -1, 1, -1, 1, 1, -1, -1, -1, -1, -1, -1, -1, -1, 1, -1, 1, -1, -1, -1, -1, 1, -1, -1, -1, -1, 1, -1, 1, 1, 1, -1, -1, -1, -1, 1, -1, -1, 1, 1, 1, 1, -1, 1, -1, 1, -1, -1, -1, 1, 1, -1, -1, 1, -1, -1, -1, -1, -1, 1, -1, -1, 1, 1, -1, -1, -1, 1, 1, -1, 1, 1, -1, 1, -1, 1, -1, -1, -1, -1, -1, 1, 1, -1, -1, 1, -1, 1, 1, 1, -1, 1, -1, 1, 1, -1, -1, -1, 1, -1, 1, -1, -1, -1, 1, 1, -1, -1, -1, -1, 1, 1, 1, -1, -1, -1, 1, 1, 1, -1, 1, -1, 1, -1, 1, -1, -1, -1, 1, -1, -1, -1, -1, -1, 1, 1, 1, -1, 1, -1, -1, 1, -1, -1, 1, -1, -1, 1, 1, 1, -1, -1, 1, 1, -1, -1, -1, 1, 1, -1, 1, -1, -1, -1, -1, 1, -1, -1, 1, -1, 1, 1, 1, -1, -1, -1, -1, 1, 1, -1, 1, 1, -1, -1, 1, -1, -1, 1, 1, 1, -1, 1, -1, 1, -1, 1, 1, 1, -1, -1, -1, 1, -1, -1, -1, 1, -1, 1, -1, 1, -1, 1, -1, 1, -1, -1, -1, 1, -1, 1, 1, -1, -1, 1, -1, 1, -1, 1, -1, 1, -1, 1, -1, -1, -1, -1, 1, -1, 1, -1, 1, 1, -1, -1, 1, -1, 1, -1, 1, -1, -1, -1, 1, -1, -1, 1, -1, -1, -1, 1, -1, 1, -1, -1, 1, 1, -1, -1, 1, -1, 1, -1, -1, 1, -1, -1, 1, 1, -1, -1, 1, -1, -1, 1, 1, 1, -1, -1, 1, 1, -1, 1, -1, -1, -1, 1, -1, 1, -1, -1, 1, 1, 1, 1, 1, 1, -1, 1, -1, 1, -1, -1, -1, -1, 1, -1, -1, -1, -1, 1, -1, 1, 1, -1, -1, 1, 1, 1, -1, -1, 1, 1, 1, 1, 1, -1, -1, 1, -1, -1, -1, 1, -1, 1, 1, -1, 1, -1, -1, -1, -1, -1, 1, -1, 1, -1, 1, -1, 1, -1, 1, -1, 1, -1, -1, 1, 1, 1, 1, -1, 1, 1, -1, -1, 1, 1, -1, 1, -1, 1, -1, 1, -1, -1, -1, 1, -1, -1, 1, 1, 1, 1, -1, 1, 1, -1, -1, -1, 1, -1, -1, 1, -1, -1, 1, -1, 1, -1, 1, -1, 1, -1, 1, 1, 1, 1, -1, 1, 1, -1, 1, -1, 1, -1, -1, 1, 1, -1, 1, -1, 1, -1, 1, -1, 1, 1, -1, 1, 1, -1, 1, 1, 1, -1, 1, -1, -1, -1, 1, 1, 1, -1, 1, 1, 1, -1, 1, -1, 1, -1, 1, 1, 1, 1, 1, -1, 1, -1, 1, -1, 1, -1, 1, 1, 1, -1, 1, 1, 1, -1, 1, -1, -1, -1, 1, 1, -1, 1, 1, 1, -1, 1, 1, 1, -1, 1, 1, 1, -1, -1, 1, 1, -1, -1, 1, -1, 1, -1, -1, 1, 1, 1, 1, 1, 1, 1, 1, -1
BQP_DATA, 3447, 16006, -7718.000000, -9436.000000, -21726.000000, -23444.000000, 8192.004085, 9215, 1957
